CPXPARAM_TimeLimit                               3600
CPXPARAM_Read_DataCheck                          1
Tried aggregator 1 time.
MIP Presolve eliminated 111 rows and 60 columns.
MIP Presolve modified 53 coefficients.
Reduced MIP has 199 rows, 76 columns, and 813 nonzeros.
Reduced MIP has 30 binaries, 0 generals, 0 SOSs, and 0 indicators.
Presolve time = 0.00 sec. (0.57 ticks)
Found incumbent of value 62.000000 after 0.00 sec. (0.80 ticks)
Probing fixed 0 vars, tightened 1 bounds.
Probing time = 0.00 sec. (0.06 ticks)
Tried aggregator 1 time.
Reduced MIP has 199 rows, 76 columns, and 813 nonzeros.
Reduced MIP has 30 binaries, 0 generals, 0 SOSs, and 0 indicators.
Presolve time = 0.00 sec. (0.37 ticks)
Probing time = 0.00 sec. (0.05 ticks)
MIP emphasis: balance optimality and feasibility.
MIP search method: dynamic search.
Parallel mode: deterministic, using up to 8 threads.
Root relaxation solution time = 0.00 sec. (0.75 ticks)

        Nodes                                         Cuts/
   Node  Left     Objective  IInf  Best Integer    Best Bound    ItCnt     Gap

*     0+    0                           62.0000       29.0000            53.23%
      0     0       29.1324    16       62.0000       29.1324       84   53.01%
*     0+    0                           33.0000       29.1324            11.72%
      0     0       31.1182    10       33.0000      Cuts: 56      142    5.70%
      0     0        cutoff             33.0000                    146    0.00%
Elapsed time = 0.01 sec. (6.42 ticks, tree = 0.01 MB, solutions = 2)

Implied bound cuts applied:  1
Flow cuts applied:  3
Mixed integer rounding cuts applied:  4
Gomory fractional cuts applied:  1

Root node processing (before b&c):
  Real time             =    0.01 sec. (6.43 ticks)
Parallel b&c, 8 threads:
  Real time             =    0.00 sec. (0.00 ticks)
  Sync time (average)   =    0.00 sec.
  Wait time (average)   =    0.00 sec.
                          ------------
Total (root+branch&cut) =    0.01 sec. (6.43 ticks)
